NAME CFLP
ROWS
 N  OBJ
 E  demand_1
 E  demand_2
 E  demand_3
 E  demand_4
 E  demand_5
 E  demand_6
 E  demand_7
 E  demand_8
 E  demand_9
 E  demand_10
 E  demand_11
 E  demand_12
 E  demand_13
 E  demand_14
 E  demand_15
 E  demand_16
 E  demand_17
 E  demand_18
 E  demand_19
 E  demand_20
 E  demand_21
 E  demand_22
 E  demand_23
 E  demand_24
 E  demand_25
 E  demand_26
 E  demand_27
 E  demand_28
 E  demand_29
 E  demand_30
 L  c_disjunction_1_diajunct_1
 L  c_disjunction_1_disjunct_2
 E  R32     
 L  c_disjunction_2_diajunct_1
 L  c_disjunction_2_disjunct_2
 E  R35     
 L  c_disjunction_3_diajunct_1
 L  c_disjunction_3_disjunct_2
 E  R38     
 L  c_disjunction_4_diajunct_1
 L  c_disjunction_4_disjunct_2
 E  R41     
 L  c_disjunction_5_diajunct_1
 L  c_disjunction_5_disjunct_2
 E  R44     
 L  c_disjunction_6_diajunct_1
 L  c_disjunction_6_disjunct_2
 E  R47     
 L  c_disjunction_7_diajunct_1
 L  c_disjunction_7_disjunct_2
 E  R50     
 L  c_disjunction_8_diajunct_1
 L  c_disjunction_8_disjunct_2
 E  R53     
 L  c_disjunction_9_diajunct_1
 L  c_disjunction_9_disjunct_2
 E  R56     
 L  c_disjunction_10_diajunct_1
 L  c_disjunction_10_disjunct_2
 E  R59     
 L  c_disjunction_11_diajunct_1
 L  c_disjunction_11_disjunct_2
 E  R62     
 L  c_disjunction_12_diajunct_1
 L  c_disjunction_12_disjunct_2
 E  R65     
 L  c_disjunction_13_diajunct_1
 L  c_disjunction_13_disjunct_2
 E  R68     
 L  c_disjunction_14_diajunct_1
 L  c_disjunction_14_disjunct_2
 E  R71     
 L  c_disjunction_15_diajunct_1
 L  c_disjunction_15_disjunct_2
 E  R74     
 L  c_disjunction_16_diajunct_1
 L  c_disjunction_16_disjunct_2
 E  R77     
 L  c_disjunction_17_diajunct_1
 L  c_disjunction_17_disjunct_2
 E  R80     
 L  c_disjunction_18_diajunct_1
 L  c_disjunction_18_disjunct_2
 E  R83     
 L  c_disjunction_19_diajunct_1
 L  c_disjunction_19_disjunct_2
 E  R86     
 L  c_disjunction_20_diajunct_1
 L  c_disjunction_20_disjunct_2
 E  R89     
 L  c_disjunction_21_diajunct_1
 L  c_disjunction_21_disjunct_2
 E  R92     
 L  c_disjunction_22_diajunct_1
 L  c_disjunction_22_disjunct_2
 E  R95     
 L  c_disjunction_23_diajunct_1
 L  c_disjunction_23_disjunct_2
 E  R98     
 L  c_disjunction_24_diajunct_1
 L  c_disjunction_24_disjunct_2
 E  R101    
 L  c_disjunction_25_diajunct_1
 L  c_disjunction_25_disjunct_2
 E  R104    
 L  c_disjunction_26_diajunct_1
 L  c_disjunction_26_disjunct_2
 E  R107    
 L  c_disjunction_27_diajunct_1
 L  c_disjunction_27_disjunct_2
 E  R110    
 L  c_disjunction_28_diajunct_1
 L  c_disjunction_28_disjunct_2
 E  R113    
 L  c_disjunction_29_diajunct_1
 L  c_disjunction_29_disjunct_2
 E  R116    
 L  c_disjunction_30_diajunct_1
 L  c_disjunction_30_disjunct_2
 E  R119    
COLUMNS
    MARKER    'MARKER'                 'INTORG'
    ind_disjunction_1_disjunct_1  OBJ       1182
    ind_disjunction_1_disjunct_1  c_disjunction_1_diajunct_1  -116
    ind_disjunction_1_disjunct_1  R32       1
    ind_disjunction_2_disjunct_1  OBJ       1182
    ind_disjunction_2_disjunct_1  c_disjunction_2_diajunct_1  -116
    ind_disjunction_2_disjunct_1  R35       1
    ind_disjunction_3_disjunct_1  OBJ       1182
    ind_disjunction_3_disjunct_1  c_disjunction_3_diajunct_1  -116
    ind_disjunction_3_disjunct_1  R38       1
    ind_disjunction_4_disjunct_1  OBJ       1182
    ind_disjunction_4_disjunct_1  c_disjunction_4_diajunct_1  -116
    ind_disjunction_4_disjunct_1  R41       1
    ind_disjunction_5_disjunct_1  OBJ       1182
    ind_disjunction_5_disjunct_1  c_disjunction_5_diajunct_1  -116
    ind_disjunction_5_disjunct_1  R44       1
    ind_disjunction_6_disjunct_1  OBJ       1182
    ind_disjunction_6_disjunct_1  c_disjunction_6_diajunct_1  -116
    ind_disjunction_6_disjunct_1  R47       1
    ind_disjunction_7_disjunct_1  OBJ       1182
    ind_disjunction_7_disjunct_1  c_disjunction_7_diajunct_1  -116
    ind_disjunction_7_disjunct_1  R50       1
    ind_disjunction_8_disjunct_1  OBJ       1182
    ind_disjunction_8_disjunct_1  c_disjunction_8_diajunct_1  -116
    ind_disjunction_8_disjunct_1  R53       1
    ind_disjunction_9_disjunct_1  OBJ       1182
    ind_disjunction_9_disjunct_1  c_disjunction_9_diajunct_1  -116
    ind_disjunction_9_disjunct_1  R56       1
    ind_disjunction_10_disjunct_1  OBJ       1182
    ind_disjunction_10_disjunct_1  c_disjunction_10_diajunct_1  -116
    ind_disjunction_10_disjunct_1  R59       1
    ind_disjunction_11_disjunct_1  OBJ       1182
    ind_disjunction_11_disjunct_1  c_disjunction_11_diajunct_1  -116
    ind_disjunction_11_disjunct_1  R62       1
    ind_disjunction_12_disjunct_1  OBJ       1182
    ind_disjunction_12_disjunct_1  c_disjunction_12_diajunct_1  -116
    ind_disjunction_12_disjunct_1  R65       1
    ind_disjunction_13_disjunct_1  OBJ       1182
    ind_disjunction_13_disjunct_1  c_disjunction_13_diajunct_1  -116
    ind_disjunction_13_disjunct_1  R68       1
    ind_disjunction_14_disjunct_1  OBJ       1182
    ind_disjunction_14_disjunct_1  c_disjunction_14_diajunct_1  -116
    ind_disjunction_14_disjunct_1  R71       1
    ind_disjunction_15_disjunct_1  OBJ       1182
    ind_disjunction_15_disjunct_1  c_disjunction_15_diajunct_1  -116
    ind_disjunction_15_disjunct_1  R74       1
    ind_disjunction_16_disjunct_1  OBJ       1182
    ind_disjunction_16_disjunct_1  c_disjunction_16_diajunct_1  -116
    ind_disjunction_16_disjunct_1  R77       1
    ind_disjunction_17_disjunct_1  OBJ       1182
    ind_disjunction_17_disjunct_1  c_disjunction_17_diajunct_1  -116
    ind_disjunction_17_disjunct_1  R80       1
    ind_disjunction_18_disjunct_1  OBJ       1182
    ind_disjunction_18_disjunct_1  c_disjunction_18_diajunct_1  -116
    ind_disjunction_18_disjunct_1  R83       1
    ind_disjunction_19_disjunct_1  OBJ       1182
    ind_disjunction_19_disjunct_1  c_disjunction_19_diajunct_1  -116
    ind_disjunction_19_disjunct_1  R86       1
    ind_disjunction_20_disjunct_1  OBJ       1182
    ind_disjunction_20_disjunct_1  c_disjunction_20_diajunct_1  -116
    ind_disjunction_20_disjunct_1  R89       1
    ind_disjunction_21_disjunct_1  OBJ       1182
    ind_disjunction_21_disjunct_1  c_disjunction_21_diajunct_1  -116
    ind_disjunction_21_disjunct_1  R92       1
    ind_disjunction_22_disjunct_1  OBJ       1182
    ind_disjunction_22_disjunct_1  c_disjunction_22_diajunct_1  -116
    ind_disjunction_22_disjunct_1  R95       1
    ind_disjunction_23_disjunct_1  OBJ       1182
    ind_disjunction_23_disjunct_1  c_disjunction_23_diajunct_1  -116
    ind_disjunction_23_disjunct_1  R98       1
    ind_disjunction_24_disjunct_1  OBJ       1182
    ind_disjunction_24_disjunct_1  c_disjunction_24_diajunct_1  -116
    ind_disjunction_24_disjunct_1  R101      1
    ind_disjunction_25_disjunct_1  OBJ       1182
    ind_disjunction_25_disjunct_1  c_disjunction_25_diajunct_1  -116
    ind_disjunction_25_disjunct_1  R104      1
    ind_disjunction_26_disjunct_1  OBJ       1182
    ind_disjunction_26_disjunct_1  c_disjunction_26_diajunct_1  -116
    ind_disjunction_26_disjunct_1  R107      1
    ind_disjunction_27_disjunct_1  OBJ       1182
    ind_disjunction_27_disjunct_1  c_disjunction_27_diajunct_1  -116
    ind_disjunction_27_disjunct_1  R110      1
    ind_disjunction_28_disjunct_1  OBJ       1182
    ind_disjunction_28_disjunct_1  c_disjunction_28_diajunct_1  -116
    ind_disjunction_28_disjunct_1  R113      1
    ind_disjunction_29_disjunct_1  OBJ       1182
    ind_disjunction_29_disjunct_1  c_disjunction_29_diajunct_1  -116
    ind_disjunction_29_disjunct_1  R116      1
    ind_disjunction_30_disjunct_1  OBJ       1182
    ind_disjunction_30_disjunct_1  c_disjunction_30_diajunct_1  -116
    ind_disjunction_30_disjunct_1  R119      1
    ind_disjunction_1_disjunct_2  c_disjunction_1_disjunct_2  4
    ind_disjunction_1_disjunct_2  R32       1
    ind_disjunction_2_disjunct_2  c_disjunction_2_disjunct_2  2
    ind_disjunction_2_disjunct_2  R35       1
    ind_disjunction_3_disjunct_2  c_disjunction_3_disjunct_2  3
    ind_disjunction_3_disjunct_2  R38       1
    ind_disjunction_4_disjunct_2  c_disjunction_4_disjunct_2  4
    ind_disjunction_4_disjunct_2  R41       1
    ind_disjunction_5_disjunct_2  c_disjunction_5_disjunct_2  3
    ind_disjunction_5_disjunct_2  R44       1
    ind_disjunction_6_disjunct_2  c_disjunction_6_disjunct_2  3
    ind_disjunction_6_disjunct_2  R47       1
    ind_disjunction_7_disjunct_2  c_disjunction_7_disjunct_2  4
    ind_disjunction_7_disjunct_2  R50       1
    ind_disjunction_8_disjunct_2  c_disjunction_8_disjunct_2  1
    ind_disjunction_8_disjunct_2  R53       1
    ind_disjunction_9_disjunct_2  c_disjunction_9_disjunct_2  4
    ind_disjunction_9_disjunct_2  R56       1
    ind_disjunction_10_disjunct_2  c_disjunction_10_disjunct_2  4
    ind_disjunction_10_disjunct_2  R59       1
    ind_disjunction_11_disjunct_2  c_disjunction_11_disjunct_2  4
    ind_disjunction_11_disjunct_2  R62       1
    ind_disjunction_12_disjunct_2  c_disjunction_12_disjunct_2  3
    ind_disjunction_12_disjunct_2  R65       1
    ind_disjunction_13_disjunct_2  c_disjunction_13_disjunct_2  2
    ind_disjunction_13_disjunct_2  R68       1
    ind_disjunction_14_disjunct_2  c_disjunction_14_disjunct_2  4
    ind_disjunction_14_disjunct_2  R71       1
    ind_disjunction_15_disjunct_2  c_disjunction_15_disjunct_2  2
    ind_disjunction_15_disjunct_2  R74       1
    ind_disjunction_16_disjunct_2  c_disjunction_16_disjunct_2  3
    ind_disjunction_16_disjunct_2  R77       1
    ind_disjunction_17_disjunct_2  c_disjunction_17_disjunct_2  2
    ind_disjunction_17_disjunct_2  R80       1
    ind_disjunction_18_disjunct_2  c_disjunction_18_disjunct_2  5
    ind_disjunction_18_disjunct_2  R83       1
    ind_disjunction_19_disjunct_2  c_disjunction_19_disjunct_2  4
    ind_disjunction_19_disjunct_2  R86       1
    ind_disjunction_20_disjunct_2  c_disjunction_20_disjunct_2  3
    ind_disjunction_20_disjunct_2  R89       1
    ind_disjunction_21_disjunct_2  c_disjunction_21_disjunct_2  4
    ind_disjunction_21_disjunct_2  R92       1
    ind_disjunction_22_disjunct_2  c_disjunction_22_disjunct_2  3
    ind_disjunction_22_disjunct_2  R95       1
    ind_disjunction_23_disjunct_2  c_disjunction_23_disjunct_2  2
    ind_disjunction_23_disjunct_2  R98       1
    ind_disjunction_24_disjunct_2  c_disjunction_24_disjunct_2  1
    ind_disjunction_24_disjunct_2  R101      1
    ind_disjunction_25_disjunct_2  c_disjunction_25_disjunct_2  3
    ind_disjunction_25_disjunct_2  R104      1
    ind_disjunction_26_disjunct_2  c_disjunction_26_disjunct_2  1
    ind_disjunction_26_disjunct_2  R107      1
    ind_disjunction_27_disjunct_2  c_disjunction_27_disjunct_2  1
    ind_disjunction_27_disjunct_2  R110      1
    ind_disjunction_28_disjunct_2  c_disjunction_28_disjunct_2  4
    ind_disjunction_28_disjunct_2  R113      1
    ind_disjunction_29_disjunct_2  c_disjunction_29_disjunct_2  2
    ind_disjunction_29_disjunct_2  R116      1
    ind_disjunction_30_disjunct_2  c_disjunction_30_disjunct_2  5
    ind_disjunction_30_disjunct_2  R119      1
    x[1,1]    demand_1  1
    x[1,1]    c_disjunction_1_diajunct_1  23
    x[1,1]    c_disjunction_1_disjunct_2  1
    x[10,1]   OBJ       16
    x[10,1]   demand_1  1
    x[10,1]   c_disjunction_10_diajunct_1  23
    x[10,1]   c_disjunction_10_disjunct_2  1
    x[11,1]   OBJ       31.7
    x[11,1]   demand_1  1
    x[11,1]   c_disjunction_11_diajunct_1  23
    x[11,1]   c_disjunction_11_disjunct_2  1
    x[2,2]    demand_2  1
    x[2,2]    c_disjunction_2_diajunct_1  23
    x[2,2]    c_disjunction_2_disjunct_2  1
    x[23,2]   OBJ       20.5
    x[23,2]   demand_2  1
    x[23,2]   c_disjunction_23_diajunct_1  23
    x[23,2]   c_disjunction_23_disjunct_2  1
    x[30,2]   OBJ       49.1
    x[30,2]   demand_2  1
    x[30,2]   c_disjunction_30_diajunct_1  23
    x[30,2]   c_disjunction_30_disjunct_2  1
    x[3,3]    demand_3  1
    x[3,3]    c_disjunction_3_diajunct_1  29
    x[3,3]    c_disjunction_3_disjunct_2  1
    x[5,3]    OBJ       24.3
    x[5,3]    demand_3  1
    x[5,3]    c_disjunction_5_diajunct_1  29
    x[5,3]    c_disjunction_5_disjunct_2  1
    x[20,3]   OBJ       49
    x[20,3]   demand_3  1
    x[20,3]   c_disjunction_20_diajunct_1  29
    x[20,3]   c_disjunction_20_disjunct_2  1
    x[4,4]    demand_4  1
    x[4,4]    c_disjunction_4_diajunct_1  7
    x[4,4]    c_disjunction_4_disjunct_2  1
    x[12,4]   OBJ       1.5
    x[12,4]   demand_4  1
    x[12,4]   c_disjunction_12_diajunct_1  7
    x[12,4]   c_disjunction_12_disjunct_2  1
    x[18,4]   OBJ       5.9
    x[18,4]   demand_4  1
    x[18,4]   c_disjunction_18_diajunct_1  7
    x[18,4]   c_disjunction_18_disjunct_2  1
    x[5,5]    demand_5  1
    x[5,5]    c_disjunction_5_diajunct_1  24
    x[5,5]    c_disjunction_5_disjunct_2  1
    x[3,5]    OBJ       20.1
    x[3,5]    demand_5  1
    x[3,5]    c_disjunction_3_diajunct_1  24
    x[3,5]    c_disjunction_3_disjunct_2  1
    x[17,5]   OBJ       50.9
    x[17,5]   demand_5  1
    x[17,5]   c_disjunction_17_diajunct_1  24
    x[17,5]   c_disjunction_17_disjunct_2  1
    x[6,6]    demand_6  1
    x[6,6]    c_disjunction_6_diajunct_1  17
    x[6,6]    c_disjunction_6_disjunct_2  1
    x[25,6]   OBJ       10.4
    x[25,6]   demand_6  1
    x[25,6]   c_disjunction_25_diajunct_1  17
    x[25,6]   c_disjunction_25_disjunct_2  1
    x[22,6]   OBJ       18
    x[22,6]   demand_6  1
    x[22,6]   c_disjunction_22_diajunct_1  17
    x[22,6]   c_disjunction_22_disjunct_2  1
    x[7,7]    demand_7  1
    x[7,7]    c_disjunction_7_diajunct_1  32
    x[7,7]    c_disjunction_7_disjunct_2  1
    x[14,7]   OBJ       14.1
    x[14,7]   demand_7  1
    x[14,7]   c_disjunction_14_diajunct_1  32
    x[14,7]   c_disjunction_14_disjunct_2  1
    x[30,7]   OBJ       28.5
    x[30,7]   demand_7  1
    x[30,7]   c_disjunction_30_diajunct_1  32
    x[30,7]   c_disjunction_30_disjunct_2  1
    x[8,8]    demand_8  1
    x[8,8]    c_disjunction_8_diajunct_1  28
    x[8,8]    c_disjunction_8_disjunct_2  1
    x[11,8]   OBJ       79.3
    x[11,8]   demand_8  1
    x[11,8]   c_disjunction_11_diajunct_1  28
    x[11,8]   c_disjunction_11_disjunct_2  1
    x[15,8]   OBJ       80.6
    x[15,8]   demand_8  1
    x[15,8]   c_disjunction_15_diajunct_1  28
    x[15,8]   c_disjunction_15_disjunct_2  1
    x[9,9]    demand_9  1
    x[9,9]    c_disjunction_9_diajunct_1  15
    x[9,9]    c_disjunction_9_disjunct_2  1
    x[16,9]   OBJ       14.4
    x[16,9]   demand_9  1
    x[16,9]   c_disjunction_16_diajunct_1  15
    x[16,9]   c_disjunction_16_disjunct_2  1
    x[28,9]   OBJ       16.6
    x[28,9]   demand_9  1
    x[28,9]   c_disjunction_28_diajunct_1  15
    x[28,9]   c_disjunction_28_disjunct_2  1
    x[10,10]  demand_10  1
    x[10,10]  c_disjunction_10_diajunct_1  23
    x[10,10]  c_disjunction_10_disjunct_2  1
    x[1,10]   OBJ       16
    x[1,10]   demand_10  1
    x[1,10]   c_disjunction_1_diajunct_1  23
    x[1,10]   c_disjunction_1_disjunct_2  1
    x[11,10]  OBJ       21.8
    x[11,10]  demand_10  1
    x[11,10]  c_disjunction_11_diajunct_1  23
    x[11,10]  c_disjunction_11_disjunct_2  1
    x[11,11]  demand_11  1
    x[11,11]  c_disjunction_11_diajunct_1  25
    x[11,11]  c_disjunction_11_disjunct_2  1
    x[10,11]  OBJ       23.7
    x[10,11]  demand_11  1
    x[10,11]  c_disjunction_10_diajunct_1  25
    x[10,11]  c_disjunction_10_disjunct_2  1
    x[1,11]   OBJ       34.5
    x[1,11]   demand_11  1
    x[1,11]   c_disjunction_1_diajunct_1  25
    x[1,11]   c_disjunction_1_disjunct_2  1
    x[12,12]  demand_12  1
    x[12,12]  c_disjunction_12_diajunct_1  8
    x[12,12]  c_disjunction_12_disjunct_2  1
    x[4,12]   OBJ       1.7
    x[4,12]   demand_12  1
    x[4,12]   c_disjunction_4_diajunct_1  8
    x[4,12]   c_disjunction_4_disjunct_2  1
    x[18,12]  OBJ       7.1
    x[18,12]  demand_12  1
    x[18,12]  c_disjunction_18_diajunct_1  8
    x[18,12]  c_disjunction_18_disjunct_2  1
    x[13,13]  demand_13  1
    x[13,13]  c_disjunction_13_diajunct_1  24
    x[13,13]  c_disjunction_13_disjunct_2  1
    x[18,13]  OBJ       14.3
    x[18,13]  demand_13  1
    x[18,13]  c_disjunction_18_diajunct_1  24
    x[18,13]  c_disjunction_18_disjunct_2  1
    x[12,13]  OBJ       33.7
    x[12,13]  demand_13  1
    x[12,13]  c_disjunction_12_diajunct_1  24
    x[12,13]  c_disjunction_12_disjunct_2  1
    x[14,14]  demand_14  1
    x[14,14]  c_disjunction_14_diajunct_1  23
    x[14,14]  c_disjunction_14_disjunct_2  1
    x[7,14]   OBJ       10.2
    x[7,14]   demand_14  1
    x[7,14]   c_disjunction_7_diajunct_1  23
    x[7,14]   c_disjunction_7_disjunct_2  1
    x[30,14]  OBJ       30.7
    x[30,14]  demand_14  1
    x[30,14]  c_disjunction_30_diajunct_1  23
    x[30,14]  c_disjunction_30_disjunct_2  1
    x[15,15]  demand_15  1
    x[15,15]  c_disjunction_15_diajunct_1  23
    x[15,15]  c_disjunction_15_disjunct_2  1
    x[9,15]   OBJ       42.1
    x[9,15]   demand_15  1
    x[9,15]   c_disjunction_9_diajunct_1  23
    x[9,15]   c_disjunction_9_disjunct_2  1
    x[28,15]  OBJ       55.3
    x[28,15]  demand_15  1
    x[28,15]  c_disjunction_28_diajunct_1  23
    x[28,15]  c_disjunction_28_disjunct_2  1
    x[16,16]  demand_16  1
    x[16,16]  c_disjunction_16_diajunct_1  11
    x[16,16]  c_disjunction_16_disjunct_2  1
    x[28,16]  OBJ       10.5
    x[28,16]  demand_16  1
    x[28,16]  c_disjunction_28_diajunct_1  11
    x[28,16]  c_disjunction_28_disjunct_2  1
    x[9,16]   OBJ       10.6
    x[9,16]   demand_16  1
    x[9,16]   c_disjunction_9_diajunct_1  11
    x[9,16]   c_disjunction_9_disjunct_2  1
    x[17,17]  demand_17  1
    x[17,17]  c_disjunction_17_diajunct_1  17
    x[17,17]  c_disjunction_17_disjunct_2  1
    x[5,17]   OBJ       36
    x[5,17]   demand_17  1
    x[5,17]   c_disjunction_5_diajunct_1  17
    x[5,17]   c_disjunction_5_disjunct_2  1
    x[3,17]   OBJ       43.8
    x[3,17]   demand_17  1
    x[3,17]   c_disjunction_3_diajunct_1  17
    x[3,17]   c_disjunction_3_disjunct_2  1
    x[18,18]  demand_18  1
    x[18,18]  c_disjunction_18_diajunct_1  23
    x[18,18]  c_disjunction_18_disjunct_2  1
    x[13,18]  OBJ       13.7
    x[13,18]  demand_18  1
    x[13,18]  c_disjunction_13_diajunct_1  23
    x[13,18]  c_disjunction_13_disjunct_2  1
    x[4,18]   OBJ       19.4
    x[4,18]   demand_18  1
    x[4,18]   c_disjunction_4_diajunct_1  23
    x[4,18]   c_disjunction_4_disjunct_2  1
    x[19,19]  demand_19  1
    x[19,19]  c_disjunction_19_diajunct_1  18
    x[19,19]  c_disjunction_19_disjunct_2  1
    x[29,19]  OBJ       18.9
    x[29,19]  demand_19  1
    x[29,19]  c_disjunction_29_diajunct_1  18
    x[29,19]  c_disjunction_29_disjunct_2  1
    x[21,19]  OBJ       21.6
    x[21,19]  demand_19  1
    x[21,19]  c_disjunction_21_diajunct_1  18
    x[21,19]  c_disjunction_21_disjunct_2  1
    x[20,20]  demand_20  1
    x[20,20]  c_disjunction_20_diajunct_1  7
    x[20,20]  c_disjunction_20_disjunct_2  1
    x[21,20]  OBJ       4.7
    x[21,20]  demand_20  1
    x[21,20]  c_disjunction_21_diajunct_1  7
    x[21,20]  c_disjunction_21_disjunct_2  1
    x[19,20]  OBJ       11.6
    x[19,20]  demand_20  1
    x[19,20]  c_disjunction_19_diajunct_1  7
    x[19,20]  c_disjunction_19_disjunct_2  1
    x[21,21]  demand_21  1
    x[21,21]  c_disjunction_21_diajunct_1  34
    x[21,21]  c_disjunction_21_disjunct_2  1
    x[20,21]  OBJ       22.7
    x[20,21]  demand_21  1
    x[20,21]  c_disjunction_20_diajunct_1  34
    x[20,21]  c_disjunction_20_disjunct_2  1
    x[19,21]  OBJ       40.8
    x[19,21]  demand_21  1
    x[19,21]  c_disjunction_19_diajunct_1  34
    x[19,21]  c_disjunction_19_disjunct_2  1
    x[22,22]  demand_22  1
    x[22,22]  c_disjunction_22_diajunct_1  12
    x[22,22]  c_disjunction_22_disjunct_2  1
    x[25,22]  OBJ       5.4
    x[25,22]  demand_22  1
    x[25,22]  c_disjunction_25_diajunct_1  12
    x[25,22]  c_disjunction_25_disjunct_2  1
    x[6,22]   OBJ       12.7
    x[6,22]   demand_22  1
    x[6,22]   c_disjunction_6_diajunct_1  12
    x[6,22]   c_disjunction_6_disjunct_2  1
    x[23,23]  demand_23  1
    x[23,23]  c_disjunction_23_diajunct_1  6
    x[23,23]  c_disjunction_23_disjunct_2  1
    x[2,23]   OBJ       5.3
    x[2,23]   demand_23  1
    x[2,23]   c_disjunction_2_diajunct_1  6
    x[2,23]   c_disjunction_2_disjunct_2  1
    x[30,23]  OBJ       11.4
    x[30,23]  demand_23  1
    x[30,23]  c_disjunction_30_diajunct_1  6
    x[30,23]  c_disjunction_30_disjunct_2  1
    x[24,24]  demand_24  1
    x[24,24]  c_disjunction_24_diajunct_1  27
    x[24,24]  c_disjunction_24_disjunct_2  1
    x[1,24]   OBJ       43.5
    x[1,24]   demand_24  1
    x[1,24]   c_disjunction_1_diajunct_1  27
    x[1,24]   c_disjunction_1_disjunct_2  1
    x[10,24]  OBJ       52.5
    x[10,24]  demand_24  1
    x[10,24]  c_disjunction_10_diajunct_1  27
    x[10,24]  c_disjunction_10_disjunct_2  1
    x[25,25]  demand_25  1
    x[25,25]  c_disjunction_25_diajunct_1  5
    x[25,25]  c_disjunction_25_disjunct_2  1
    x[22,25]  OBJ       2.2
    x[22,25]  demand_25  1
    x[22,25]  c_disjunction_22_diajunct_1  5
    x[22,25]  c_disjunction_22_disjunct_2  1
    x[6,25]   OBJ       3.1
    x[6,25]   demand_25  1
    x[6,25]   c_disjunction_6_diajunct_1  5
    x[6,25]   c_disjunction_6_disjunct_2  1
    x[26,26]  demand_26  1
    x[26,26]  c_disjunction_26_diajunct_1  7
    x[26,26]  c_disjunction_26_disjunct_2  1
    x[14,26]  OBJ       16.5
    x[14,26]  demand_26  1
    x[14,26]  c_disjunction_14_diajunct_1  7
    x[14,26]  c_disjunction_14_disjunct_2  1
    x[7,26]   OBJ       18.2
    x[7,26]   demand_26  1
    x[7,26]   c_disjunction_7_diajunct_1  7
    x[7,26]   c_disjunction_7_disjunct_2  1
    x[27,27]  demand_27  1
    x[27,27]  c_disjunction_27_diajunct_1  29
    x[27,27]  c_disjunction_27_disjunct_2  1
    x[18,27]  OBJ       50.1
    x[18,27]  demand_27  1
    x[18,27]  c_disjunction_18_diajunct_1  29
    x[18,27]  c_disjunction_18_disjunct_2  1
    x[4,27]   OBJ       55.1
    x[4,27]   demand_27  1
    x[4,27]   c_disjunction_4_diajunct_1  29
    x[4,27]   c_disjunction_4_disjunct_2  1
    x[28,28]  demand_28  1
    x[28,28]  c_disjunction_28_diajunct_1  16
    x[28,28]  c_disjunction_28_disjunct_2  1
    x[16,28]  OBJ       15.3
    x[16,28]  demand_28  1
    x[16,28]  c_disjunction_16_diajunct_1  16
    x[16,28]  c_disjunction_16_disjunct_2  1
    x[9,28]   OBJ       17.7
    x[9,28]   demand_28  1
    x[9,28]   c_disjunction_9_diajunct_1  16
    x[9,28]   c_disjunction_9_disjunct_2  1
    x[29,29]  demand_29  1
    x[29,29]  c_disjunction_29_diajunct_1  12
    x[29,29]  c_disjunction_29_disjunct_2  1
    x[19,29]  OBJ       12.6
    x[19,29]  demand_29  1
    x[19,29]  c_disjunction_19_diajunct_1  12
    x[19,29]  c_disjunction_19_disjunct_2  1
    x[21,29]  OBJ       24.2
    x[21,29]  demand_29  1
    x[21,29]  c_disjunction_21_diajunct_1  12
    x[21,29]  c_disjunction_21_disjunct_2  1
    x[30,30]  demand_30  1
    x[30,30]  c_disjunction_30_diajunct_1  32
    x[30,30]  c_disjunction_30_disjunct_2  1
    x[7,30]   OBJ       28.5
    x[7,30]   demand_30  1
    x[7,30]   c_disjunction_7_diajunct_1  32
    x[7,30]   c_disjunction_7_disjunct_2  1
    x[14,30]  OBJ       42.7
    x[14,30]  demand_30  1
    x[14,30]  c_disjunction_14_diajunct_1  32
    x[14,30]  c_disjunction_14_disjunct_2  1
    MARKER    'MARKER'                 'INTEND'
RHS
    RHS1      demand_1  1
    RHS1      demand_2  1
    RHS1      demand_3  1
    RHS1      demand_4  1
    RHS1      demand_5  1
    RHS1      demand_6  1
    RHS1      demand_7  1
    RHS1      demand_8  1
    RHS1      demand_9  1
    RHS1      demand_10  1
    RHS1      demand_11  1
    RHS1      demand_12  1
    RHS1      demand_13  1
    RHS1      demand_14  1
    RHS1      demand_15  1
    RHS1      demand_16  1
    RHS1      demand_17  1
    RHS1      demand_18  1
    RHS1      demand_19  1
    RHS1      demand_20  1
    RHS1      demand_21  1
    RHS1      demand_22  1
    RHS1      demand_23  1
    RHS1      demand_24  1
    RHS1      demand_25  1
    RHS1      demand_26  1
    RHS1      demand_27  1
    RHS1      demand_28  1
    RHS1      demand_29  1
    RHS1      demand_30  1
    RHS1      c_disjunction_1_disjunct_2  4
    RHS1      R32       1
    RHS1      c_disjunction_2_disjunct_2  2
    RHS1      R35       1
    RHS1      c_disjunction_3_disjunct_2  3
    RHS1      R38       1
    RHS1      c_disjunction_4_disjunct_2  4
    RHS1      R41       1
    RHS1      c_disjunction_5_disjunct_2  3
    RHS1      R44       1
    RHS1      c_disjunction_6_disjunct_2  3
    RHS1      R47       1
    RHS1      c_disjunction_7_disjunct_2  4
    RHS1      R50       1
    RHS1      c_disjunction_8_disjunct_2  1
    RHS1      R53       1
    RHS1      c_disjunction_9_disjunct_2  4
    RHS1      R56       1
    RHS1      c_disjunction_10_disjunct_2  4
    RHS1      R59       1
    RHS1      c_disjunction_11_disjunct_2  4
    RHS1      R62       1
    RHS1      c_disjunction_12_disjunct_2  3
    RHS1      R65       1
    RHS1      c_disjunction_13_disjunct_2  2
    RHS1      R68       1
    RHS1      c_disjunction_14_disjunct_2  4
    RHS1      R71       1
    RHS1      c_disjunction_15_disjunct_2  2
    RHS1      R74       1
    RHS1      c_disjunction_16_disjunct_2  3
    RHS1      R77       1
    RHS1      c_disjunction_17_disjunct_2  2
    RHS1      R80       1
    RHS1      c_disjunction_18_disjunct_2  5
    RHS1      R83       1
    RHS1      c_disjunction_19_disjunct_2  4
    RHS1      R86       1
    RHS1      c_disjunction_20_disjunct_2  3
    RHS1      R89       1
    RHS1      c_disjunction_21_disjunct_2  4
    RHS1      R92       1
    RHS1      c_disjunction_22_disjunct_2  3
    RHS1      R95       1
    RHS1      c_disjunction_23_disjunct_2  2
    RHS1      R98       1
    RHS1      c_disjunction_24_disjunct_2  1
    RHS1      R101      1
    RHS1      c_disjunction_25_disjunct_2  3
    RHS1      R104      1
    RHS1      c_disjunction_26_disjunct_2  1
    RHS1      R107      1
    RHS1      c_disjunction_27_disjunct_2  1
    RHS1      R110      1
    RHS1      c_disjunction_28_disjunct_2  4
    RHS1      R113      1
    RHS1      c_disjunction_29_disjunct_2  2
    RHS1      R116      1
    RHS1      c_disjunction_30_disjunct_2  5
    RHS1      R119      1
BOUNDS
 BV BND1      ind_disjunction_1_disjunct_1
 BV BND1      ind_disjunction_2_disjunct_1
 BV BND1      ind_disjunction_3_disjunct_1
 BV BND1      ind_disjunction_4_disjunct_1
 BV BND1      ind_disjunction_5_disjunct_1
 BV BND1      ind_disjunction_6_disjunct_1
 BV BND1      ind_disjunction_7_disjunct_1
 BV BND1      ind_disjunction_8_disjunct_1
 BV BND1      ind_disjunction_9_disjunct_1
 BV BND1      ind_disjunction_10_disjunct_1
 BV BND1      ind_disjunction_11_disjunct_1
 BV BND1      ind_disjunction_12_disjunct_1
 BV BND1      ind_disjunction_13_disjunct_1
 BV BND1      ind_disjunction_14_disjunct_1
 BV BND1      ind_disjunction_15_disjunct_1
 BV BND1      ind_disjunction_16_disjunct_1
 BV BND1      ind_disjunction_17_disjunct_1
 BV BND1      ind_disjunction_18_disjunct_1
 BV BND1      ind_disjunction_19_disjunct_1
 BV BND1      ind_disjunction_20_disjunct_1
 BV BND1      ind_disjunction_21_disjunct_1
 BV BND1      ind_disjunction_22_disjunct_1
 BV BND1      ind_disjunction_23_disjunct_1
 BV BND1      ind_disjunction_24_disjunct_1
 BV BND1      ind_disjunction_25_disjunct_1
 BV BND1      ind_disjunction_26_disjunct_1
 BV BND1      ind_disjunction_27_disjunct_1
 BV BND1      ind_disjunction_28_disjunct_1
 BV BND1      ind_disjunction_29_disjunct_1
 BV BND1      ind_disjunction_30_disjunct_1
 BV BND1      ind_disjunction_1_disjunct_2
 BV BND1      ind_disjunction_2_disjunct_2
 BV BND1      ind_disjunction_3_disjunct_2
 BV BND1      ind_disjunction_4_disjunct_2
 BV BND1      ind_disjunction_5_disjunct_2
 BV BND1      ind_disjunction_6_disjunct_2
 BV BND1      ind_disjunction_7_disjunct_2
 BV BND1      ind_disjunction_8_disjunct_2
 BV BND1      ind_disjunction_9_disjunct_2
 BV BND1      ind_disjunction_10_disjunct_2
 BV BND1      ind_disjunction_11_disjunct_2
 BV BND1      ind_disjunction_12_disjunct_2
 BV BND1      ind_disjunction_13_disjunct_2
 BV BND1      ind_disjunction_14_disjunct_2
 BV BND1      ind_disjunction_15_disjunct_2
 BV BND1      ind_disjunction_16_disjunct_2
 BV BND1      ind_disjunction_17_disjunct_2
 BV BND1      ind_disjunction_18_disjunct_2
 BV BND1      ind_disjunction_19_disjunct_2
 BV BND1      ind_disjunction_20_disjunct_2
 BV BND1      ind_disjunction_21_disjunct_2
 BV BND1      ind_disjunction_22_disjunct_2
 BV BND1      ind_disjunction_23_disjunct_2
 BV BND1      ind_disjunction_24_disjunct_2
 BV BND1      ind_disjunction_25_disjunct_2
 BV BND1      ind_disjunction_26_disjunct_2
 BV BND1      ind_disjunction_27_disjunct_2
 BV BND1      ind_disjunction_28_disjunct_2
 BV BND1      ind_disjunction_29_disjunct_2
 BV BND1      ind_disjunction_30_disjunct_2
 BV BND1      x[1,1]  
 BV BND1      x[10,1] 
 BV BND1      x[11,1] 
 BV BND1      x[2,2]  
 BV BND1      x[23,2] 
 BV BND1      x[30,2] 
 BV BND1      x[3,3]  
 BV BND1      x[5,3]  
 BV BND1      x[20,3] 
 BV BND1      x[4,4]  
 BV BND1      x[12,4] 
 BV BND1      x[18,4] 
 BV BND1      x[5,5]  
 BV BND1      x[3,5]  
 BV BND1      x[17,5] 
 BV BND1      x[6,6]  
 BV BND1      x[25,6] 
 BV BND1      x[22,6] 
 BV BND1      x[7,7]  
 BV BND1      x[14,7] 
 BV BND1      x[30,7] 
 BV BND1      x[8,8]  
 BV BND1      x[11,8] 
 BV BND1      x[15,8] 
 BV BND1      x[9,9]  
 BV BND1      x[16,9] 
 BV BND1      x[28,9] 
 BV BND1      x[10,10]
 BV BND1      x[1,10] 
 BV BND1      x[11,10]
 BV BND1      x[11,11]
 BV BND1      x[10,11]
 BV BND1      x[1,11] 
 BV BND1      x[12,12]
 BV BND1      x[4,12] 
 BV BND1      x[18,12]
 BV BND1      x[13,13]
 BV BND1      x[18,13]
 BV BND1      x[12,13]
 BV BND1      x[14,14]
 BV BND1      x[7,14] 
 BV BND1      x[30,14]
 BV BND1      x[15,15]
 BV BND1      x[9,15] 
 BV BND1      x[28,15]
 BV BND1      x[16,16]
 BV BND1      x[28,16]
 BV BND1      x[9,16] 
 BV BND1      x[17,17]
 BV BND1      x[5,17] 
 BV BND1      x[3,17] 
 BV BND1      x[18,18]
 BV BND1      x[13,18]
 BV BND1      x[4,18] 
 BV BND1      x[19,19]
 BV BND1      x[29,19]
 BV BND1      x[21,19]
 BV BND1      x[20,20]
 BV BND1      x[21,20]
 BV BND1      x[19,20]
 BV BND1      x[21,21]
 BV BND1      x[20,21]
 BV BND1      x[19,21]
 BV BND1      x[22,22]
 BV BND1      x[25,22]
 BV BND1      x[6,22] 
 BV BND1      x[23,23]
 BV BND1      x[2,23] 
 BV BND1      x[30,23]
 BV BND1      x[24,24]
 BV BND1      x[1,24] 
 BV BND1      x[10,24]
 BV BND1      x[25,25]
 BV BND1      x[22,25]
 BV BND1      x[6,25] 
 BV BND1      x[26,26]
 BV BND1      x[14,26]
 BV BND1      x[7,26] 
 BV BND1      x[27,27]
 BV BND1      x[18,27]
 BV BND1      x[4,27] 
 BV BND1      x[28,28]
 BV BND1      x[16,28]
 BV BND1      x[9,28] 
 BV BND1      x[29,29]
 BV BND1      x[19,29]
 BV BND1      x[21,29]
 BV BND1      x[30,30]
 BV BND1      x[7,30] 
 BV BND1      x[14,30]
ENDATA
